job_count = 10 ;
duration = [|13, 3|13, 3|5, 2|7, 9|7, 8|16, 1|3, 7|7, 7|7, 3|15, 8|] ;
machine_count = 2 ;
cost = [|17, 36|14, 31|12, 25|17, 32|15, 29|18, 26|15, 32|12, 36|15, 33|19, 26|] ;
deadline = [25, 25, 25, 25, 25, 25, 25, 25, 25, 25] ;
release = [0, 0, 0, 0, 0, 0, 0, 0, 0, 0] ;
resource = [|2, 2|3, 3|5, 5|6, 6|5, 5|6, 6|4, 4|4, 4|4, 4|7, 7|] ;
capacities = [10, 10] ;
